; PUSH cw_5 DUP1 PUSH cw_7 DUP1 PUSH cw_6 SWAP1 => PUSH cw_5 PUSH cw_5 PUSH cw_7 PUSH cw_6 PUSH cw_7
(set-option :produce-proofs true)
; 
(set-info :status unknown)
(declare-fun storage_t ((_ BitVec 256) (_ BitVec 256) (_ BitVec 256) Int (_ BitVec 256)) (_ BitVec 256))
(declare-fun w_6 () (_ BitVec 256))
(declare-fun w_7 () (_ BitVec 256))
(declare-fun w_5 () (_ BitVec 256))
(declare-fun storage_s ((_ BitVec 256) (_ BitVec 256) (_ BitVec 256) Int (_ BitVec 256)) (_ BitVec 256))
(declare-fun exc_halt_t (Int) Bool)
(declare-fun exc_halt_s (Int) Bool)
(declare-fun sc_t (Int) (_ BitVec 6))
(declare-fun stack_t ((_ BitVec 256) (_ BitVec 256) (_ BitVec 256) Int (_ BitVec 6)) (_ BitVec 256))
(declare-fun stack_s ((_ BitVec 256) (_ BitVec 256) (_ BitVec 256) Int (_ BitVec 6)) (_ BitVec 256))
(declare-fun sc_s (Int) (_ BitVec 6))
(declare-fun used_gas_t ((_ BitVec 256) (_ BitVec 256) (_ BitVec 256) Int) Int)
(declare-fun used_gas_s ((_ BitVec 256) (_ BitVec 256) (_ BitVec 256) Int) Int)
(assert
 (let (($x11622 (forall ((w (_ BitVec 256)) )(let ((?x647 (storage_t w_5 w_7 w_6 5 w)))
 (let ((?x257 (storage_s w_5 w_7 w_6 6 w)))
 (= ?x257 ?x647))))
 ))
 (let (($x886 (exc_halt_t 5)))
 (let (($x772 (exc_halt_s 6)))
 (let (($x889 (= $x772 $x886)))
 (let (($x4069 (forall ((n (_ BitVec 6)) )(let ((?x8748 (stack_t w_5 w_7 w_6 5 n)))
 (let ((?x2710 (stack_s w_5 w_7 w_6 6 n)))
 (let (($x2214 (= ?x2710 ?x8748)))
 (or $x2214 (bvsle (sc_t 5) n))))))
 ))
 (let ((?x919 (sc_t 5)))
 (let ((?x926 (sc_s 6)))
 (let (($x929 (= ?x926 ?x919)))
 (let ((?x6617 (used_gas_t w_5 w_7 w_6 0)))
 (let ((?x1303 (used_gas_s w_5 w_7 w_6 0)))
 (let (($x7182 (= ?x1303 ?x6617)))
 (let (($x3301 (forall ((w (_ BitVec 256)) )(let ((?x11811 (storage_t w_5 w_7 w_6 0 w)))
 (let ((?x6251 (storage_s w_5 w_7 w_6 0 w)))
 (= ?x6251 ?x11811))))
 ))
 (let (($x56 (exc_halt_t 0)))
 (let (($x57 (exc_halt_s 0)))
 (let (($x58 (= $x57 $x56)))
 (let (($x4640 (forall ((n (_ BitVec 6)) )(let ((?x7226 (stack_t w_5 w_7 w_6 0 n)))
 (let ((?x3754 (stack_s w_5 w_7 w_6 0 n)))
 (let (($x6266 (= ?x3754 ?x7226)))
 (let ((?x63 (sc_t 0)))
 (let (($x4866 (bvsle ?x63 n)))
 (or $x4866 $x6266)))))))
 ))
 (let ((?x63 (sc_t 0)))
 (let ((?x72 (sc_s 0)))
 (let (($x73 (= ?x72 ?x63)))
 (let (($x3723 (exc_halt_t 4)))
 (let (($x11100 (or $x3723 (not (= ((_ extract 6 6) (bvadd (_ bv1 7) (concat (_ bv0 1) (sc_t 4)))) (_ bv0 1))))))
 (let (($x8962 (forall ((w (_ BitVec 256)) )(let ((?x9557 (storage_t w_5 w_7 w_6 4 w)))
 (let ((?x647 (storage_t w_5 w_7 w_6 5 w)))
 (= ?x647 ?x9557))))
 ))
 (let (($x1688 (forall ((n (_ BitVec 6)) )(let ((?x9788 (stack_t w_5 w_7 w_6 4 n)))
 (let ((?x8748 (stack_t w_5 w_7 w_6 5 n)))
 (or (bvsle (sc_t 4) n) (= ?x8748 ?x9788)))))
 ))
 (let (($x5435 (= (used_gas_t w_5 w_7 w_6 5) (+ 3 (used_gas_t w_5 w_7 w_6 4)))))
 (let (($x6783 (exc_halt_t 3)))
 (let (($x11582 (or $x6783 (not (= ((_ extract 6 6) (bvadd (_ bv1 7) (concat (_ bv0 1) (sc_t 3)))) (_ bv0 1))))))
 (let (($x7783 (forall ((w (_ BitVec 256)) )(let ((?x6830 (storage_t w_5 w_7 w_6 3 w)))
 (let ((?x9557 (storage_t w_5 w_7 w_6 4 w)))
 (= ?x9557 ?x6830))))
 ))
 (let (($x115 (forall ((n (_ BitVec 6)) )(let ((?x6438 (sc_t 3)))
 (let (($x9809 (bvsle ?x6438 n)))
 (let ((?x703 (stack_t w_5 w_7 w_6 3 n)))
 (let ((?x9788 (stack_t w_5 w_7 w_6 4 n)))
 (or (= ?x9788 ?x703) $x9809))))))
 ))
 (let ((?x10188 (used_gas_t w_5 w_7 w_6 4)))
 (let (($x5252 (exc_halt_t 2)))
 (let (($x8475 (or $x5252 (not (= ((_ extract 6 6) (bvadd (_ bv1 7) (concat (_ bv0 1) (sc_t 2)))) (_ bv0 1))))))
 (let (($x5692 (forall ((w (_ BitVec 256)) )(let ((?x1785 (storage_t w_5 w_7 w_6 2 w)))
 (let ((?x6830 (storage_t w_5 w_7 w_6 3 w)))
 (= ?x6830 ?x1785))))
 ))
 (let (($x7520 (forall ((n (_ BitVec 6)) )(let ((?x3832 (stack_t w_5 w_7 w_6 2 n)))
 (let ((?x703 (stack_t w_5 w_7 w_6 3 n)))
 (or (bvsle (sc_t 2) n) (= ?x703 ?x3832)))))
 ))
 (let ((?x226 (used_gas_t w_5 w_7 w_6 3)))
 (let (($x3508 (exc_halt_t 1)))
 (let (($x2519 (or $x3508 (not (= ((_ extract 6 6) (bvadd (_ bv1 7) (concat (_ bv0 1) (sc_t 1)))) (_ bv0 1))))))
 (let (($x11645 (forall ((w (_ BitVec 256)) )(let ((?x2568 (storage_t w_5 w_7 w_6 1 w)))
 (let ((?x1785 (storage_t w_5 w_7 w_6 2 w)))
 (= ?x1785 ?x2568))))
 ))
 (let (($x3963 (forall ((n (_ BitVec 6)) )(let ((?x6069 (stack_t w_5 w_7 w_6 1 n)))
 (let ((?x3832 (stack_t w_5 w_7 w_6 2 n)))
 (let ((?x8347 (sc_t 1)))
 (let (($x7612 (bvsle ?x8347 n)))
 (or $x7612 (= ?x3832 ?x6069)))))))
 ))
 (let ((?x5317 (used_gas_t w_5 w_7 w_6 2)))
 (let (($x9711 (= $x3508 (or $x56 (not (= ((_ extract 6 6) (bvadd (_ bv1 7) (concat (_ bv0 1) ?x63))) (_ bv0 1)))))))
 (let (($x1687 (forall ((w (_ BitVec 256)) )(let ((?x11811 (storage_t w_5 w_7 w_6 0 w)))
 (let ((?x2568 (storage_t w_5 w_7 w_6 1 w)))
 (= ?x2568 ?x11811))))
 ))
 (let (($x8297 (forall ((n (_ BitVec 6)) )(let ((?x7226 (stack_t w_5 w_7 w_6 0 n)))
 (let ((?x6069 (stack_t w_5 w_7 w_6 1 n)))
 (let ((?x63 (sc_t 0)))
 (let (($x4866 (bvsle ?x63 n)))
 (or $x4866 (= ?x6069 ?x7226)))))))
 ))
 (let ((?x8347 (sc_t 1)))
 (let (($x9556 (= ?x8347 (bvadd (_ bv1 6) ?x63))))
 (let (($x7843 (= $x772 (or (exc_halt_s 5) (not (bvsle (_ bv0 6) (bvadd (_ bv62 6) (sc_s 5))))))))
 (let (($x10853 (forall ((w (_ BitVec 256)) )(let ((?x6629 (storage_s w_5 w_7 w_6 5 w)))
 (let ((?x257 (storage_s w_5 w_7 w_6 6 w)))
 (= ?x257 ?x6629))))
 ))
 (let (($x3813 (forall ((n (_ BitVec 6)) )(let ((?x4223 (stack_s w_5 w_7 w_6 5 n)))
 (let ((?x2710 (stack_s w_5 w_7 w_6 6 n)))
 (or (= ?x2710 ?x4223) (bvsle (bvadd (_ bv62 6) (sc_s 5)) n)))))
 ))
 (let ((?x4319 (sc_s 5)))
 (let (($x9018 (= ?x926 ?x4319)))
 (let (($x9146 (= (used_gas_s w_5 w_7 w_6 6) (+ 3 (used_gas_s w_5 w_7 w_6 5)))))
 (let (($x3713 (= (stack_s w_5 w_7 w_6 6 (bvadd (_ bv62 6) ?x926)) (stack_s w_5 w_7 w_6 5 (bvadd (_ bv63 6) ?x4319)))))
 (let (($x11754 (= (stack_s w_5 w_7 w_6 6 (bvadd (_ bv63 6) ?x926)) (stack_s w_5 w_7 w_6 5 (bvadd (_ bv62 6) ?x4319)))))
 (let (($x7172 (exc_halt_s 4)))
 (let (($x3454 (or $x7172 (not (= ((_ extract 6 6) (bvadd (_ bv1 7) (concat (_ bv0 1) (sc_s 4)))) (_ bv0 1))))))
 (let (($x11317 (exc_halt_s 5)))
 (let (($x6034 (forall ((w (_ BitVec 256)) )(let ((?x5644 (storage_s w_5 w_7 w_6 4 w)))
 (let ((?x6629 (storage_s w_5 w_7 w_6 5 w)))
 (= ?x6629 ?x5644))))
 ))
 (let (($x4543 (forall ((n (_ BitVec 6)) )(let ((?x1903 (stack_s w_5 w_7 w_6 4 n)))
 (let ((?x4223 (stack_s w_5 w_7 w_6 5 n)))
 (or (bvsle (sc_s 4) n) (= ?x4223 ?x1903)))))
 ))
 (let ((?x3732 (used_gas_s w_5 w_7 w_6 5)))
 (let (($x292 (exc_halt_s 3)))
 (let (($x3288 (or $x292 (not (= ((_ extract 6 6) (bvadd (_ bv1 7) (concat (_ bv0 1) (sc_s 3)))) (_ bv0 1))) (not (bvsle (_ bv0 6) (bvadd (_ bv63 6) (sc_s 3)))))))
 (let (($x4193 (forall ((w (_ BitVec 256)) )(let ((?x1839 (storage_s w_5 w_7 w_6 3 w)))
 (let ((?x5644 (storage_s w_5 w_7 w_6 4 w)))
 (= ?x5644 ?x1839))))
 ))
 (let (($x9384 (forall ((n (_ BitVec 6)) )(let ((?x10581 (stack_s w_5 w_7 w_6 3 n)))
 (let ((?x1903 (stack_s w_5 w_7 w_6 4 n)))
 (or (= ?x1903 ?x10581) (bvsle (bvadd (_ bv63 6) (sc_s 3)) n)))))
 ))
 (let ((?x7227 (used_gas_s w_5 w_7 w_6 4)))
 (let ((?x275 (sc_s 3)))
 (let ((?x314 (bvadd (_ bv63 6) ?x275)))
 (let ((?x10915 (stack_s w_5 w_7 w_6 3 ?x314)))
 (let (($x247 (exc_halt_s 2)))
 (let (($x9200 (or $x247 (not (= ((_ extract 6 6) (bvadd (_ bv1 7) (concat (_ bv0 1) (sc_s 2)))) (_ bv0 1))))))
 (let (($x10786 (= $x292 $x9200)))
 (let (($x4458 (forall ((w (_ BitVec 256)) )(let ((?x2018 (storage_s w_5 w_7 w_6 2 w)))
 (let ((?x1839 (storage_s w_5 w_7 w_6 3 w)))
 (= ?x1839 ?x2018))))
 ))
 (let (($x3606 (forall ((n (_ BitVec 6)) )(let ((?x5169 (stack_s w_5 w_7 w_6 2 n)))
 (let ((?x10581 (stack_s w_5 w_7 w_6 3 n)))
 (let ((?x218 (sc_s 2)))
 (let (($x5534 (bvsle ?x218 n)))
 (or $x5534 (= ?x10581 ?x5169)))))))
 ))
 (let (($x11250 (= ?x275 (bvadd (_ bv1 6) (sc_s 2)))))
 (let ((?x4891 (used_gas_s w_5 w_7 w_6 3)))
 (let (($x11374 (not (bvsle (_ bv0 6) (bvadd (_ bv63 6) (sc_s 1))))))
 (let (($x7355 (not (= ((_ extract 6 6) (bvadd (_ bv1 7) (concat (_ bv0 1) (sc_s 1)))) (_ bv0 1)))))
 (let (($x189 (exc_halt_s 1)))
 (let (($x6238 (forall ((w (_ BitVec 256)) )(let ((?x5331 (storage_s w_5 w_7 w_6 1 w)))
 (let ((?x2018 (storage_s w_5 w_7 w_6 2 w)))
 (= ?x2018 ?x5331))))
 ))
 (let (($x10317 (forall ((n (_ BitVec 6)) )(let ((?x154 (sc_s 1)))
 (let ((?x9355 (bvadd (_ bv63 6) ?x154)))
 (let (($x11667 (bvsle ?x9355 n)))
 (let ((?x5673 (stack_s w_5 w_7 w_6 1 n)))
 (let ((?x5169 (stack_s w_5 w_7 w_6 2 n)))
 (or (= ?x5169 ?x5673) $x11667)))))))
 ))
 (let ((?x218 (sc_s 2)))
 (let (($x513 (= ?x218 (bvadd (_ bv1 6) (sc_s 1)))))
 (let ((?x2036 (used_gas_s w_5 w_7 w_6 2)))
 (let ((?x154 (sc_s 1)))
 (let ((?x9355 (bvadd (_ bv63 6) ?x154)))
 (let ((?x814 (stack_s w_5 w_7 w_6 1 ?x9355)))
 (let (($x9787 (= $x189 (or $x57 (not (= ((_ extract 6 6) (bvadd (_ bv1 7) (concat (_ bv0 1) ?x72))) (_ bv0 1)))))))
 (let (($x9121 (forall ((w (_ BitVec 256)) )(let ((?x6251 (storage_s w_5 w_7 w_6 0 w)))
 (let ((?x5331 (storage_s w_5 w_7 w_6 1 w)))
 (= ?x5331 ?x6251))))
 ))
 (let (($x417 (forall ((n (_ BitVec 6)) )(let ((?x72 (sc_s 0)))
 (let (($x3549 (bvsle ?x72 n)))
 (let ((?x3754 (stack_s w_5 w_7 w_6 0 n)))
 (let ((?x5673 (stack_s w_5 w_7 w_6 1 n)))
 (or (= ?x5673 ?x3754) $x3549))))))
 ))
 (let (($x10046 (= ?x154 (bvadd (_ bv1 6) ?x72))))
 (let (($x7201 (forall ((w (_ BitVec 256)) )(let ((?x6251 (storage_s w_5 w_7 w_6 0 w)))
 (= ?x6251 (_ bv0 256))))
 ))
 (let (($x11114 (= ?x1303 0)))
 (let (($x1248 (not $x57)))
 (let (($x4761 (= ?x72 (_ bv0 6))))
 (and $x4761 $x1248 $x11114 $x7201 (= (stack_s w_5 w_7 w_6 1 ?x72) w_5) (= (used_gas_s w_5 w_7 w_6 1) (+ 3 ?x1303)) $x10046 $x417 $x9121 $x9787 (= (stack_s w_5 w_7 w_6 2 (bvadd (_ bv63 6) ?x218)) ?x814) (= (stack_s w_5 w_7 w_6 2 ?x9355) ?x814) (= ?x2036 (+ 3 (used_gas_s w_5 w_7 w_6 1))) $x513 $x10317 $x6238 (= $x247 (or $x189 $x7355 $x11374)) (= (stack_s w_5 w_7 w_6 3 ?x218) w_7) (= ?x4891 (+ 3 ?x2036)) $x11250 $x3606 $x4458 $x10786 (= (stack_s w_5 w_7 w_6 4 (bvadd (_ bv63 6) (sc_s 4))) ?x10915) (= (stack_s w_5 w_7 w_6 4 ?x314) ?x10915) (= ?x7227 (+ 3 ?x4891)) (= (sc_s 4) (bvadd (_ bv1 6) ?x275)) $x9384 $x4193 (= $x7172 $x3288) (= (stack_s w_5 w_7 w_6 5 (sc_s 4)) w_6) (= ?x3732 (+ 3 ?x7227)) (= ?x4319 (bvadd (_ bv1 6) (sc_s 4))) $x4543 $x6034 (= $x11317 $x3454) $x11754 $x3713 $x9146 $x9018 $x3813 $x10853 $x7843 (= (stack_t w_5 w_7 w_6 1 ?x63) w_5) (= (used_gas_t w_5 w_7 w_6 1) (+ 3 ?x6617)) $x9556 $x8297 $x1687 $x9711 (= (stack_t w_5 w_7 w_6 2 ?x8347) w_5) (= ?x5317 (+ 3 (used_gas_t w_5 w_7 w_6 1))) (= (sc_t 2) (bvadd (_ bv1 6) ?x8347)) $x3963 $x11645 (= $x5252 $x2519) (= (stack_t w_5 w_7 w_6 3 (sc_t 2)) w_7) (= ?x226 (+ 3 ?x5317)) (= (sc_t 3) (bvadd (_ bv1 6) (sc_t 2))) $x7520 $x5692 (= $x6783 $x8475) (= (stack_t w_5 w_7 w_6 4 (sc_t 3)) w_6) (= ?x10188 (+ 3 ?x226)) (= (sc_t 4) (bvadd (_ bv1 6) (sc_t 3))) $x115 $x7783 (= $x3723 $x11582) (= (stack_t w_5 w_7 w_6 5 (sc_t 4)) w_7) $x5435 (= ?x919 (bvadd (_ bv1 6) (sc_t 4))) $x1688 $x8962 (= $x886 $x11100) $x73 $x4640 $x58 $x3301 $x7182 (not (and $x929 $x4069 $x889 $x11622))))))))))))))))))))))))))))))))))))))))))))))))))))))))))))))))))))))))))))))))))))))))))))))))
(check-sat)
(get-proof)
